(set-option :smt.auto-config false)
(set-option :smt.mbqi false)
(set-option :sat.random_seed 488)
(set-option :smt.random_seed 599)
(set-option :nlsat.seed 611)
(set-option :memory_max_size 6000)
(declare-fun $div (Int Int) Int)
(declare-sort RegExStr 0)
(declare-sort RMode 0)
(declare-fun $sign (Int) Int)
(assert (! (forall ((a0py0 Int)(b0py0 Int)) (! (or (and (not (<= 0 a0py0)) (not (= (mod a0py0 b0py0) 0))) (= (to_real ($div a0py0 b0py0)) (/ (to_real a0py0) (to_real b0py0)))) :pattern (($div a0py0 b0py0)) )) :named A0))
(assert (! (forall ((a1py0 Int)(b1py0 Int)) (! (or (<= 0 a1py0) (= (mod a1py0 b1py0) 0) (= (to_real ($div a1py0 b1py0)) (+ (/ (to_real a1py0) (to_real b1py0)) (to_real ($sign b1py0))))) :pattern (($div a1py0 b1py0)) )) :named A1))
(check-sat)
(get-info :reason-unknown)
